NAME : instance_12_200
TYPE : TSP
DIMENSION : 12
EDGE_WEIGHT_TYPE : EUC_2D
LOWER : 0
UPPER : 100
NODE_COORD_SECTION
1 20.7103522494 15.6430240488
2 39.3561213044 25.0369634246
3 10.343480017 39.9990370264
4 63.9728232985 16.7935829842
5 23.6384801101 72.0733756199
6 97.2441743128 12.7280157525
7 6.775743491 15.2628573589
8 19.6191811236 28.188574221
9 15.7166321995 33.2399581792
10 53.3846948529 83.6971423589
11 28.3195901662 77.3715697229
12 97.2488908097 74.5708266739
EOF
